p cnf 100 970
1 2 3 4 5 0
6 7 8 9 10 0
11 12 13 14 15 0
16 17 18 19 20 0
21 22 23 24 25 0
26 27 28 29 30 0
31 32 33 34 35 0
36 37 38 39 40 0
41 42 43 44 45 0
46 47 48 49 50 0
51 52 53 54 55 0
56 57 58 59 60 0
61 62 63 64 65 0
66 67 68 69 70 0
71 72 73 74 75 0
76 77 78 79 80 0
81 82 83 84 85 0
86 87 88 89 90 0
91 92 93 94 95 0
96 97 98 99 100 0
-1 -6 0
-1 -11 0
-1 -16 0
-1 -21 0
-1 -26 0
-1 -31 0
-1 -36 0
-1 -41 0
-1 -46 0
-1 -51 0
-1 -56 0
-1 -61 0
-1 -66 0
-1 -71 0
-1 -76 0
-1 -81 0
-1 -86 0
-1 -91 0
-1 -96 0
-6 -11 0
-6 -16 0
-6 -21 0
-6 -26 0
-6 -31 0
-6 -36 0
-6 -41 0
-6 -46 0
-6 -51 0
-6 -56 0
-6 -61 0
-6 -66 0
-6 -71 0
-6 -76 0
-6 -81 0
-6 -86 0
-6 -91 0
-6 -96 0
-11 -16 0
-11 -21 0
-11 -26 0
-11 -31 0
-11 -36 0
-11 -41 0
-11 -46 0
-11 -51 0
-11 -56 0
-11 -61 0
-11 -66 0
-11 -71 0
-11 -76 0
-11 -81 0
-11 -86 0
-11 -91 0
-11 -96 0
-16 -21 0
-16 -26 0
-16 -31 0
-16 -36 0
-16 -41 0
-16 -46 0
-16 -51 0
-16 -56 0
-16 -61 0
-16 -66 0
-16 -71 0
-16 -76 0
-16 -81 0
-16 -86 0
-16 -91 0
-16 -96 0
-21 -26 0
-21 -31 0
-21 -36 0
-21 -41 0
-21 -46 0
-21 -51 0
-21 -56 0
-21 -61 0
-21 -66 0
-21 -71 0
-21 -76 0
-21 -81 0
-21 -86 0
-21 -91 0
-21 -96 0
-26 -31 0
-26 -36 0
-26 -41 0
-26 -46 0
-26 -51 0
-26 -56 0
-26 -61 0
-26 -66 0
-26 -71 0
-26 -76 0
-26 -81 0
-26 -86 0
-26 -91 0
-26 -96 0
-31 -36 0
-31 -41 0
-31 -46 0
-31 -51 0
-31 -56 0
-31 -61 0
-31 -66 0
-31 -71 0
-31 -76 0
-31 -81 0
-31 -86 0
-31 -91 0
-31 -96 0
-36 -41 0
-36 -46 0
-36 -51 0
-36 -56 0
-36 -61 0
-36 -66 0
-36 -71 0
-36 -76 0
-36 -81 0
-36 -86 0
-36 -91 0
-36 -96 0
-41 -46 0
-41 -51 0
-41 -56 0
-41 -61 0
-41 -66 0
-41 -71 0
-41 -76 0
-41 -81 0
-41 -86 0
-41 -91 0
-41 -96 0
-46 -51 0
-46 -56 0
-46 -61 0
-46 -66 0
-46 -71 0
-46 -76 0
-46 -81 0
-46 -86 0
-46 -91 0
-46 -96 0
-51 -56 0
-51 -61 0
-51 -66 0
-51 -71 0
-51 -76 0
-51 -81 0
-51 -86 0
-51 -91 0
-51 -96 0
-56 -61 0
-56 -66 0
-56 -71 0
-56 -76 0
-56 -81 0
-56 -86 0
-56 -91 0
-56 -96 0
-61 -66 0
-61 -71 0
-61 -76 0
-61 -81 0
-61 -86 0
-61 -91 0
-61 -96 0
-66 -71 0
-66 -76 0
-66 -81 0
-66 -86 0
-66 -91 0
-66 -96 0
-71 -76 0
-71 -81 0
-71 -86 0
-71 -91 0
-71 -96 0
-76 -81 0
-76 -86 0
-76 -91 0
-76 -96 0
-81 -86 0
-81 -91 0
-81 -96 0
-86 -91 0
-86 -96 0
-91 -96 0
-2 -7 0
-2 -12 0
-2 -17 0
-2 -22 0
-2 -27 0
-2 -32 0
-2 -37 0
-2 -42 0
-2 -47 0
-2 -52 0
-2 -57 0
-2 -62 0
-2 -67 0
-2 -72 0
-2 -77 0
-2 -82 0
-2 -87 0
-2 -92 0
-2 -97 0
-7 -12 0
-7 -17 0
-7 -22 0
-7 -27 0
-7 -32 0
-7 -37 0
-7 -42 0
-7 -47 0
-7 -52 0
-7 -57 0
-7 -62 0
-7 -67 0
-7 -72 0
-7 -77 0
-7 -82 0
-7 -87 0
-7 -92 0
-7 -97 0
-12 -17 0
-12 -22 0
-12 -27 0
-12 -32 0
-12 -37 0
-12 -42 0
-12 -47 0
-12 -52 0
-12 -57 0
-12 -62 0
-12 -67 0
-12 -72 0
-12 -77 0
-12 -82 0
-12 -87 0
-12 -92 0
-12 -97 0
-17 -22 0
-17 -27 0
-17 -32 0
-17 -37 0
-17 -42 0
-17 -47 0
-17 -52 0
-17 -57 0
-17 -62 0
-17 -67 0
-17 -72 0
-17 -77 0
-17 -82 0
-17 -87 0
-17 -92 0
-17 -97 0
-22 -27 0
-22 -32 0
-22 -37 0
-22 -42 0
-22 -47 0
-22 -52 0
-22 -57 0
-22 -62 0
-22 -67 0
-22 -72 0
-22 -77 0
-22 -82 0
-22 -87 0
-22 -92 0
-22 -97 0
-27 -32 0
-27 -37 0
-27 -42 0
-27 -47 0
-27 -52 0
-27 -57 0
-27 -62 0
-27 -67 0
-27 -72 0
-27 -77 0
-27 -82 0
-27 -87 0
-27 -92 0
-27 -97 0
-32 -37 0
-32 -42 0
-32 -47 0
-32 -52 0
-32 -57 0
-32 -62 0
-32 -67 0
-32 -72 0
-32 -77 0
-32 -82 0
-32 -87 0
-32 -92 0
-32 -97 0
-37 -42 0
-37 -47 0
-37 -52 0
-37 -57 0
-37 -62 0
-37 -67 0
-37 -72 0
-37 -77 0
-37 -82 0
-37 -87 0
-37 -92 0
-37 -97 0
-42 -47 0
-42 -52 0
-42 -57 0
-42 -62 0
-42 -67 0
-42 -72 0
-42 -77 0
-42 -82 0
-42 -87 0
-42 -92 0
-42 -97 0
-47 -52 0
-47 -57 0
-47 -62 0
-47 -67 0
-47 -72 0
-47 -77 0
-47 -82 0
-47 -87 0
-47 -92 0
-47 -97 0
-52 -57 0
-52 -62 0
-52 -67 0
-52 -72 0
-52 -77 0
-52 -82 0
-52 -87 0
-52 -92 0
-52 -97 0
-57 -62 0
-57 -67 0
-57 -72 0
-57 -77 0
-57 -82 0
-57 -87 0
-57 -92 0
-57 -97 0
-62 -67 0
-62 -72 0
-62 -77 0
-62 -82 0
-62 -87 0
-62 -92 0
-62 -97 0
-67 -72 0
-67 -77 0
-67 -82 0
-67 -87 0
-67 -92 0
-67 -97 0
-72 -77 0
-72 -82 0
-72 -87 0
-72 -92 0
-72 -97 0
-77 -82 0
-77 -87 0
-77 -92 0
-77 -97 0
-82 -87 0
-82 -92 0
-82 -97 0
-87 -92 0
-87 -97 0
-92 -97 0
-3 -8 0
-3 -13 0
-3 -18 0
-3 -23 0
-3 -28 0
-3 -33 0
-3 -38 0
-3 -43 0
-3 -48 0
-3 -53 0
-3 -58 0
-3 -63 0
-3 -68 0
-3 -73 0
-3 -78 0
-3 -83 0
-3 -88 0
-3 -93 0
-3 -98 0
-8 -13 0
-8 -18 0
-8 -23 0
-8 -28 0
-8 -33 0
-8 -38 0
-8 -43 0
-8 -48 0
-8 -53 0
-8 -58 0
-8 -63 0
-8 -68 0
-8 -73 0
-8 -78 0
-8 -83 0
-8 -88 0
-8 -93 0
-8 -98 0
-13 -18 0
-13 -23 0
-13 -28 0
-13 -33 0
-13 -38 0
-13 -43 0
-13 -48 0
-13 -53 0
-13 -58 0
-13 -63 0
-13 -68 0
-13 -73 0
-13 -78 0
-13 -83 0
-13 -88 0
-13 -93 0
-13 -98 0
-18 -23 0
-18 -28 0
-18 -33 0
-18 -38 0
-18 -43 0
-18 -48 0
-18 -53 0
-18 -58 0
-18 -63 0
-18 -68 0
-18 -73 0
-18 -78 0
-18 -83 0
-18 -88 0
-18 -93 0
-18 -98 0
-23 -28 0
-23 -33 0
-23 -38 0
-23 -43 0
-23 -48 0
-23 -53 0
-23 -58 0
-23 -63 0
-23 -68 0
-23 -73 0
-23 -78 0
-23 -83 0
-23 -88 0
-23 -93 0
-23 -98 0
-28 -33 0
-28 -38 0
-28 -43 0
-28 -48 0
-28 -53 0
-28 -58 0
-28 -63 0
-28 -68 0
-28 -73 0
-28 -78 0
-28 -83 0
-28 -88 0
-28 -93 0
-28 -98 0
-33 -38 0
-33 -43 0
-33 -48 0
-33 -53 0
-33 -58 0
-33 -63 0
-33 -68 0
-33 -73 0
-33 -78 0
-33 -83 0
-33 -88 0
-33 -93 0
-33 -98 0
-38 -43 0
-38 -48 0
-38 -53 0
-38 -58 0
-38 -63 0
-38 -68 0
-38 -73 0
-38 -78 0
-38 -83 0
-38 -88 0
-38 -93 0
-38 -98 0
-43 -48 0
-43 -53 0
-43 -58 0
-43 -63 0
-43 -68 0
-43 -73 0
-43 -78 0
-43 -83 0
-43 -88 0
-43 -93 0
-43 -98 0
-48 -53 0
-48 -58 0
-48 -63 0
-48 -68 0
-48 -73 0
-48 -78 0
-48 -83 0
-48 -88 0
-48 -93 0
-48 -98 0
-53 -58 0
-53 -63 0
-53 -68 0
-53 -73 0
-53 -78 0
-53 -83 0
-53 -88 0
-53 -93 0
-53 -98 0
-58 -63 0
-58 -68 0
-58 -73 0
-58 -78 0
-58 -83 0
-58 -88 0
-58 -93 0
-58 -98 0
-63 -68 0
-63 -73 0
-63 -78 0
-63 -83 0
-63 -88 0
-63 -93 0
-63 -98 0
-68 -73 0
-68 -78 0
-68 -83 0
-68 -88 0
-68 -93 0
-68 -98 0
-73 -78 0
-73 -83 0
-73 -88 0
-73 -93 0
-73 -98 0
-78 -83 0
-78 -88 0
-78 -93 0
-78 -98 0
-83 -88 0
-83 -93 0
-83 -98 0
-88 -93 0
-88 -98 0
-93 -98 0
-4 -9 0
-4 -14 0
-4 -19 0
-4 -24 0
-4 -29 0
-4 -34 0
-4 -39 0
-4 -44 0
-4 -49 0
-4 -54 0
-4 -59 0
-4 -64 0
-4 -69 0
-4 -74 0
-4 -79 0
-4 -84 0
-4 -89 0
-4 -94 0
-4 -99 0
-9 -14 0
-9 -19 0
-9 -24 0
-9 -29 0
-9 -34 0
-9 -39 0
-9 -44 0
-9 -49 0
-9 -54 0
-9 -59 0
-9 -64 0
-9 -69 0
-9 -74 0
-9 -79 0
-9 -84 0
-9 -89 0
-9 -94 0
-9 -99 0
-14 -19 0
-14 -24 0
-14 -29 0
-14 -34 0
-14 -39 0
-14 -44 0
-14 -49 0
-14 -54 0
-14 -59 0
-14 -64 0
-14 -69 0
-14 -74 0
-14 -79 0
-14 -84 0
-14 -89 0
-14 -94 0
-14 -99 0
-19 -24 0
-19 -29 0
-19 -34 0
-19 -39 0
-19 -44 0
-19 -49 0
-19 -54 0
-19 -59 0
-19 -64 0
-19 -69 0
-19 -74 0
-19 -79 0
-19 -84 0
-19 -89 0
-19 -94 0
-19 -99 0
-24 -29 0
-24 -34 0
-24 -39 0
-24 -44 0
-24 -49 0
-24 -54 0
-24 -59 0
-24 -64 0
-24 -69 0
-24 -74 0
-24 -79 0
-24 -84 0
-24 -89 0
-24 -94 0
-24 -99 0
-29 -34 0
-29 -39 0
-29 -44 0
-29 -49 0
-29 -54 0
-29 -59 0
-29 -64 0
-29 -69 0
-29 -74 0
-29 -79 0
-29 -84 0
-29 -89 0
-29 -94 0
-29 -99 0
-34 -39 0
-34 -44 0
-34 -49 0
-34 -54 0
-34 -59 0
-34 -64 0
-34 -69 0
-34 -74 0
-34 -79 0
-34 -84 0
-34 -89 0
-34 -94 0
-34 -99 0
-39 -44 0
-39 -49 0
-39 -54 0
-39 -59 0
-39 -64 0
-39 -69 0
-39 -74 0
-39 -79 0
-39 -84 0
-39 -89 0
-39 -94 0
-39 -99 0
-44 -49 0
-44 -54 0
-44 -59 0
-44 -64 0
-44 -69 0
-44 -74 0
-44 -79 0
-44 -84 0
-44 -89 0
-44 -94 0
-44 -99 0
-49 -54 0
-49 -59 0
-49 -64 0
-49 -69 0
-49 -74 0
-49 -79 0
-49 -84 0
-49 -89 0
-49 -94 0
-49 -99 0
-54 -59 0
-54 -64 0
-54 -69 0
-54 -74 0
-54 -79 0
-54 -84 0
-54 -89 0
-54 -94 0
-54 -99 0
-59 -64 0
-59 -69 0
-59 -74 0
-59 -79 0
-59 -84 0
-59 -89 0
-59 -94 0
-59 -99 0
-64 -69 0
-64 -74 0
-64 -79 0
-64 -84 0
-64 -89 0
-64 -94 0
-64 -99 0
-69 -74 0
-69 -79 0
-69 -84 0
-69 -89 0
-69 -94 0
-69 -99 0
-74 -79 0
-74 -84 0
-74 -89 0
-74 -94 0
-74 -99 0
-79 -84 0
-79 -89 0
-79 -94 0
-79 -99 0
-84 -89 0
-84 -94 0
-84 -99 0
-89 -94 0
-89 -99 0
-94 -99 0
-5 -10 0
-5 -15 0
-5 -20 0
-5 -25 0
-5 -30 0
-5 -35 0
-5 -40 0
-5 -45 0
-5 -50 0
-5 -55 0
-5 -60 0
-5 -65 0
-5 -70 0
-5 -75 0
-5 -80 0
-5 -85 0
-5 -90 0
-5 -95 0
-5 -100 0
-10 -15 0
-10 -20 0
-10 -25 0
-10 -30 0
-10 -35 0
-10 -40 0
-10 -45 0
-10 -50 0
-10 -55 0
-10 -60 0
-10 -65 0
-10 -70 0
-10 -75 0
-10 -80 0
-10 -85 0
-10 -90 0
-10 -95 0
-10 -100 0
-15 -20 0
-15 -25 0
-15 -30 0
-15 -35 0
-15 -40 0
-15 -45 0
-15 -50 0
-15 -55 0
-15 -60 0
-15 -65 0
-15 -70 0
-15 -75 0
-15 -80 0
-15 -85 0
-15 -90 0
-15 -95 0
-15 -100 0
-20 -25 0
-20 -30 0
-20 -35 0
-20 -40 0
-20 -45 0
-20 -50 0
-20 -55 0
-20 -60 0
-20 -65 0
-20 -70 0
-20 -75 0
-20 -80 0
-20 -85 0
-20 -90 0
-20 -95 0
-20 -100 0
-25 -30 0
-25 -35 0
-25 -40 0
-25 -45 0
-25 -50 0
-25 -55 0
-25 -60 0
-25 -65 0
-25 -70 0
-25 -75 0
-25 -80 0
-25 -85 0
-25 -90 0
-25 -95 0
-25 -100 0
-30 -35 0
-30 -40 0
-30 -45 0
-30 -50 0
-30 -55 0
-30 -60 0
-30 -65 0
-30 -70 0
-30 -75 0
-30 -80 0
-30 -85 0
-30 -90 0
-30 -95 0
-30 -100 0
-35 -40 0
-35 -45 0
-35 -50 0
-35 -55 0
-35 -60 0
-35 -65 0
-35 -70 0
-35 -75 0
-35 -80 0
-35 -85 0
-35 -90 0
-35 -95 0
-35 -100 0
-40 -45 0
-40 -50 0
-40 -55 0
-40 -60 0
-40 -65 0
-40 -70 0
-40 -75 0
-40 -80 0
-40 -85 0
-40 -90 0
-40 -95 0
-40 -100 0
-45 -50 0
-45 -55 0
-45 -60 0
-45 -65 0
-45 -70 0
-45 -75 0
-45 -80 0
-45 -85 0
-45 -90 0
-45 -95 0
-45 -100 0
-50 -55 0
-50 -60 0
-50 -65 0
-50 -70 0
-50 -75 0
-50 -80 0
-50 -85 0
-50 -90 0
-50 -95 0
-50 -100 0
-55 -60 0
-55 -65 0
-55 -70 0
-55 -75 0
-55 -80 0
-55 -85 0
-55 -90 0
-55 -95 0
-55 -100 0
-60 -65 0
-60 -70 0
-60 -75 0
-60 -80 0
-60 -85 0
-60 -90 0
-60 -95 0
-60 -100 0
-65 -70 0
-65 -75 0
-65 -80 0
-65 -85 0
-65 -90 0
-65 -95 0
-65 -100 0
-70 -75 0
-70 -80 0
-70 -85 0
-70 -90 0
-70 -95 0
-70 -100 0
-75 -80 0
-75 -85 0
-75 -90 0
-75 -95 0
-75 -100 0
-80 -85 0
-80 -90 0
-80 -95 0
-80 -100 0
-85 -90 0
-85 -95 0
-85 -100 0
-90 -95 0
-90 -100 0
-95 -100 0
